40	100	100	100
57	91	97
52	62	93
61	64	54
98	92	58
59	53	94
91	50	78
67	96	98
91	54	85
87	72	62
53	97	72
50	99	73
98	65	60
65	86	89
85	87	99
80	77	84
63	59	67
61	60	68
57	54	52
58	68	72
73	99	69
55	69	90
60	71	60
73	60	64
51	88	99
87	99	73
79	78	62
73	78	72
54	88	64
96	73	59
85	83	89
86	60	63
88	82	79
87	72	91
79	87	98
55	81	81
76	50	83
98	79	81
76	85	75
62	80	88
85	96	73
